3 3 2
3 2 1 17 2 25 2 1 40 2 30 2 2 50 3 60
3 2 1 30 3 50 2 1 50 2 60 2 2 70 3 60
3 2 1 50 2 60 2 2 70 3 80 2 2 90 3 100

   0  29  41  
3  0  6  
12  34  0  
0  16  15  
42  0  49  
31  47  0  
0  34  2  
35  0  28  
46  43  0  
